\ENCODING=ISO-8859-1
\Problem name: IloCplex

Minimize
 obj: X(0) + 2 X(1) + 3 X(2) + 4 X(3) + 5 X(4) + 6 X(5) + 7 X(6) + 8 X(7)
      + 9 X(8) + 10 X(9)
Subject To
 c1:  X(0) >= 150
 c2:  X(0) + 2 X(1) >= 150
 c3:  X(0) + 2 X(1) + 3 X(2) >= 150
 c4:  X(0) + 2 X(1) + 3 X(2) + 4 X(3) >= 150
 c5:  X(0) + 2 X(1) + 3 X(2) + 4 X(3) + 5 X(4) >= 150
 c6:  X(0) + 2 X(1) + 3 X(2) + 4 X(3) + 5 X(4) + 6 X(5) >= 150
 c7:  X(0) + 2 X(1) + 3 X(2) + 4 X(3) + 5 X(4) + 6 X(5) + 7 X(6) >= 150
 c8:  X(0) + 2 X(1) + 3 X(2) + 4 X(3) + 5 X(4) + 6 X(5) + 7 X(6) + 8 X(7)
      >= 150
 c9:  X(0) + 2 X(1) + 3 X(2) + 4 X(3) + 5 X(4) + 6 X(5) + 7 X(6) + 8 X(7)
      + 9 X(8) >= 150
 c10: X(0) + 2 X(1) + 3 X(2) + 4 X(3) + 5 X(4) + 6 X(5) + 7 X(6) + 8 X(7)
      + 9 X(8) + 10 X(9) >= 150
 c11: X(0) >= 130
 c12: X(0) + 2 X(1) >= 130
 c13: X(0) + 2 X(1) + 3 X(2) >= 130
 c14: X(0) + 2 X(1) + 3 X(2) + 4 X(3) >= 130
 c15: X(0) + 2 X(1) + 3 X(2) + 4 X(3) + 5 X(4) >= 130
 c16: X(0) + 2 X(1) + 3 X(2) + 4 X(3) + 5 X(4) + 6 X(5) >= 130
 c17: X(0) + 2 X(1) + 3 X(2) + 4 X(3) + 5 X(4) + 6 X(5) + 7 X(6) >= 130
 c18: X(0) + 2 X(1) + 3 X(2) + 4 X(3) + 5 X(4) + 6 X(5) + 7 X(6) + 8 X(7)
      >= 130
 c19: X(0) + 2 X(1) + 3 X(2) + 4 X(3) + 5 X(4) + 6 X(5) + 7 X(6) + 8 X(7)
      + 9 X(8) >= 130
 c20: X(0) + 2 X(1) + 3 X(2) + 4 X(3) + 5 X(4) + 6 X(5) + 7 X(6) + 8 X(7)
      + 9 X(8) + 10 X(9) >= 130
 c21: X(0) >= 60
 c22: X(0) + 2 X(1) >= 60
 c23: X(0) + 2 X(1) + 3 X(2) >= 60
 c24: X(0) + 2 X(1) + 3 X(2) + 4 X(3) >= 60
 c25: X(0) + 2 X(1) + 3 X(2) + 4 X(3) + 5 X(4) >= 60
 c26: X(0) + 2 X(1) + 3 X(2) + 4 X(3) + 5 X(4) + 6 X(5) >= 60
 c27: X(0) + 2 X(1) + 3 X(2) + 4 X(3) + 5 X(4) + 6 X(5) + 7 X(6) >= 60
 c28: X(0) + 2 X(1) + 3 X(2) + 4 X(3) + 5 X(4) + 6 X(5) + 7 X(6) + 8 X(7) >= 60
 c29: X(0) + 2 X(1) + 3 X(2) + 4 X(3) + 5 X(4) + 6 X(5) + 7 X(6) + 8 X(7)
      + 9 X(8) >= 60
 c30: X(0) + 2 X(1) + 3 X(2) + 4 X(3) + 5 X(4) + 6 X(5) + 7 X(6) + 8 X(7)
      + 9 X(8) + 10 X(9) >= 60
Bounds
 0 <= X(0) <= 9.22337203685478e+18
 0 <= X(1) <= 9.22337203685478e+18
 0 <= X(2) <= 9.22337203685478e+18
 0 <= X(3) <= 9.22337203685478e+18
 0 <= X(4) <= 9.22337203685478e+18
 0 <= X(5) <= 9.22337203685478e+18
 0 <= X(6) <= 9.22337203685478e+18
 0 <= X(7) <= 9.22337203685478e+18
 0 <= X(8) <= 9.22337203685478e+18
 0 <= X(9) <= 9.22337203685478e+18
Generals
 X(0)  X(1)  X(2)  X(3)  X(4)  X(5)  X(6)  X(7)  X(8)  X(9) 
End
